Route #1:
Route #2: 31 19 2 4 23 3
Route #3: 17 15
Route #4: 21
Route #5: 25 18 28 20
Route #6: 12
Route #7: 24
Route #8: 6
Route #9: 26 22 29 5
Route #10: 10 14 13 1 7 30 8 27
Route #11: 9 11 16

Cost: 2050.554110447786
